(set-info :smt-lib-version 2.6)
(set-logic QF_S)
(set-info :source |
Generated by: Murphy Berzish, Mitja Kulczynski, Federico Mora, Florin Manea, Joel Day, Dirk Nowotka, Vijay Ganesh, Zhengyang Lu
Generated on: 2020-10-01
Description: Translated from a collection of real-world regex queries, AutomataArk, collected by Loris D’Antoni and Fang Wang: https://github.com/lorisdanto/automatark
Application: Evaluate solvers on real-world regex queries
Target solver: Z3str3RE, CVC4, OSTRICH, Z3seq, Z3str3, Z3-Trau
Publications: Berzish, M., Kulczynski, M., Mora, F., Manea, F., Day, J. D., Nowotka, D., & Ganesh, V. (2021, July). An SMT solver for regular expressions and linear arithmetic over string length. In CAV 2021.
|)
(set-info :license "https://creativecommons.org/licenses/by/4.0/")
(set-info :category "industrial")
(set-info :status unknown)

(declare-const X String)
(assert (not (str.in_re X (str.to_re "MyPostsearch.conduit.comUser-Agent:AcmeSubject:ready.\u{d}\u{a}\u{a}"))))
(assert (not (str.in_re X (str.to_re "media.dxcdirect.com.smx?PASSW=SAHHost:ProAgentIDENTIFY\u{a}"))))
(assert (not (str.in_re X (re.union (re.++ (re.opt (str.to_re "0")) (re.opt (re.range "0" "9")) (re.range "0" "9")) (str.to_re "100\u{a}")))))
(assert (not (str.in_re X (str.to_re "Servidor.\u{13}home.edonkey.com\u{a}"))))
(assert (str.in_re X (re.++ (str.to_re "//images2//U\u{a}") ((_ re.loop 500 500) (re.union (re.range "0" "9") (re.range "a" "f") (re.range "A" "F"))) (re.* (re.union (re.range "0" "9") (re.range "a" "f") (re.range "A" "F"))))))
(check-sat)

(exit)
